
713
31616
 28438      1
 28434      1
 28432      1
 28418      1
 28412      1
 28404      1
 28392      1
 28340      1
 28332      1
 28328      1
 28294      1
 28290      1
 28252      1
 28244      1
 28208      1
 28159      1
 28158      1
 28152      1
 28149      1
 28118      1
 28096      1
 28077      1
 28072      1
 28060      1
 28052      1
 28040      1
 28021      1
 28014      1
 27963      1
 27934      1
 27926      1
 27923      1
 27916      1
 27900      1
 27878      1
 27856      1
 27838      1
 27787      1
 27781      1
 27740      1
 27724      1
 27720      1
 27696      1
 27678      1
 27668      1
 27645      1
 27638      1
 27623      1
 27611      1
 27592      1
 27590      1
 27583      1
 27558      1
 27550      1
 27548      1
 27542      1
 27522      1
 27504      1
 27496      1
 27460      1
 27412      1
 27407      1
 27400      1
 27398      1
 27395      1
 27379      1
 27375      1
 27358      1
 27347      1
 27307      1
 27302      1
 27292      1
 27280      1
 27272      1
 27240      1
 27227      1
 27208      1
 27102      1
 27100      1
 27078      1
 27075      1
 27048      1
 27029      1
 27022      1
 27020      1
 26968      1
 26956      1
 26954      1
 26924      1
 26893      1
 26832      1
 26767      1
 26766      1
 26709      1
 26692      1
 26686      1
 26616      1
 26588      1
 26523      1
 26520      1
 26501      1
 26488      1
 26480      1
 26456      1
 26414      1
 26366      1
 26350      1
 26308      1
 26263      1
 26251      1
 26190      1
 26180      1
 26164      1
 26148      1
 26110      1
 26084      1
 26032      1
 26030      1
 26024      1
 26014      1
 25951      1
 25945      1
 25816      1
 25756      1
 25738      1
 25652      1
 25585      1
 25554      1
 25545      1
 25538      1
 25522      1
 25520      1
 25506      1
 25490      1
 25378      1
 25360      1
 25346      1
 25252      1
 25248      1
 25240      1
 25188      1
 25162      1
 25154      1
 25138      1
 25136      1
 25112      1
 25105      1
 25073      1
 25017      1
 24977      1
 24952      1
 24929      1
 24912      1
 24873      1
 24830      1
 24613      1
 24580      1
 24548      1
 24516      1
 24513      1
 24502      1
 24470      1
 24452      1
 24438      1
 24436      1
 24420      1
 24393      1
 24368      1
 24356      1
 24296      1
 24249      1
 24070      1
 24054      1
 23944      1
 23911      1
 23792      1
 23784      1
 23778      1
 23644      1
 23592      1
 23580      1
 23549      1
 23528      1
 23438      1
 23368      1
 23024      1
 22991      1
 22870      1
 22838      1
 22810      1
 22712      1
 22695      1
 22652      1
 22640      1
 22620      1
 22484      1
 22355      1
 22312      1
 22259      1
 22150      1
 22118      1
 22090      1
 21947      1
 21904      1
 21712      1
 21672      1
 21512      1
 21332      1
 21313      1
 21286      1
 21268      1
 21254      1
 21212      1
 20976      1
 20717      1
 20625      1
 20609      1
 20592      1
 20561      1
 20519      1
 20362      1
 20250      1
 20218      1
 20072      1
 19976      1
 19944      1
 19912      1
 19876      1
 19812      1
 19804      1
 19752      1
 19440      1
 19297      1
 19247      1
 19214      1
 19038      1
 19006      1
 18608      1
 18296      1
 18132      1
 18116      1
 18016      1
 17960      1
 17956      1
 17892      1
 17719      1
 17703      1
 17655      1
 17586      1
 17584      1
 17554      1
 16784      1
 16216      1
 15836      1
 15832      1
 15824      1
 15820      1
 15816      1
 15814      1
 15813      1
 15812      1
 15810      1
 15809      1
 15648      1
 14920      1
 14732      1
 14016      1
 13176      1
 13174      1
 13173      1
 13171      1
 13170      1
 13168      1
 13164      1
 13156      1
 13020      1
 12840      1
 12368      1
 12064      1
 11722      1
 11696      1
 11694      1
 11648      1
 11635      1
 11595      1
 11581      1
 11514      1
 11444      1
 11384      1
 11252      1
 11244      1
 11112      1
 10864      1
 10510      1
 10341      1
 10338      1
 10309      1
 10267      1
 10263      1
 10160      1
  9906      1
  9896      1
  9844      2
  9788      1
  9768      1
  9736      1
  9704      1
  9624      1
  9616      1
  9474      1
  9382      1
  9249      1
  9213      1
  9200      1
  9173      1
  9153      1
  8824      1
  8676      1
  8638      1
  8628      1
  8610      1
  8587      1
  8572      1
  8486      1
  8424      1
  8272      1
  8112      1
  8059      1
  7918      1
  7890      1
  7768      1
  7719      1
  7612      1
  7504      1
  7500      1
  7476      1
  7435      1
  7432      2
  7342      1
  7318      1
  7290      1
  7189      1
  7184      1
  6888      1
  6818      1
  6723      1
  6700      1
  6696      1
  6644      1
  6544      1
  6536      1
  6534      1
  6421      1
  6408      1
  6302      1
  6290      1
  6219      1
  6141      1
  6104      1
  6064      2
  6052      1
  6021      1
  6004      1
  5998      1
  5988      1
  5982      1
  5972      1
  5968      1
  5958      1
  5952      1
  5930      1
  5924      1
  5921      1
  5892      1
  5868      1
  5658      1
  5621      1
  5616      1
  5573      1
  5560      1
  5533      1
  5501      1
  5453      1
  5432      1
  5427      1
  5404      1
  5402      1
  5386      1
  5382      1
  5364      1
  5320      1
  5290      1
  5226      1
  5106      1
  5104      1
  5082      1
  5066      1
  5061      1
  5054      1
  5050      1
  5027      1
  4972      1
  4960      1
  4916      1
  4902      1
  4884      2
  4840      1
  4790      1
  4727      1
  4721      1
  4670      1
  4664      1
  4656      1
  4590      1
  4564      1
  4532      1
  4522      1
  4471      1
  4461      1
  4428      1
  4390      1
  4378      1
  4312      1
  4304      1
  4280      1
  4263      1
  4256      1
  4248      1
  4245      1
  4196      1
  4168      1
  4110      1
  4108      1
  4091      1
  4082      1
  4042      1
  4041      1
  4016      1
  3976      1
  3937      1
  3916      1
  3904      1
  3886      1
  3884      1
  3880      1
  3868      1
  3836      1
  3830      1
  3823      1
  3816      1
  3810      1
  3785      1
  3782      1
  3764      1
  3762      1
  3736      1
  3659      1
  3656      1
  3632      1
  3624      1
  3604      1
  3599      1
  3598      1
  3591      1
  3559      1
  3535      1
  3531      1
  3528      1
  3519      1
  3509      1
  3482      1
  3468      1
  3440      1
  3414      1
  3398      1
  3396      1
  3390      1
  3382      1
  3368      1
  3361      1
  3339      1
  3329      1
  3318      1
  3292      1
  3282      1
  3280      1
  3256      1
  3252      1
  3244      1
  3236      1
  3197      1
  3191      1
  3152      1
  3150      1
  3118      1
  3100      1
  3079      1
  3078      1
  3070      1
  3045      1
  3002      1
  2997      1
  2984      1
  2976      1
  2972      1
  2968      1
  2964      1
  2951      1
  2918      1
  2891      1
  2888      1
  2882      1
  2881      1
  2868      1
  2864      1
  2844      1
  2812      1
  2804      1
  2774      1
  2770      1
  2744      1
  2740      1
  2732      1
  2722      1
  2696      1
  2672      1
  2654      1
  2650      1
  2634      1
  2632      4
  2624      3
  2560      1
  2464      1
  2400      1
  2340      1
  2336      2
  2326      1
  2318      1
  2316      1
  2280      1
  2272      1
  2248      1
  2240      1
  2208      1
  2144      2
  2100      1
  2064      1
  2060      1
  2052      1
  2016      1
  1968      2
  1960      1
  1952      1
  1936      3
  1920      1
  1892      1
  1872      1
  1848      1
  1842      1
  1834      1
  1824      1
  1792      1
  1728      1
  1724      1
  1720      2
  1716      1
  1712      1
  1680      1
  1632      1
  1610      1
  1600      1
  1580      1
  1576      1
  1542      1
  1536      2
  1520      1
  1496      1
  1492      1
  1488      1
  1486      1
  1472      3
  1464      1
  1460      1
  1456      1
  1436      1
  1408      1
  1360      2
  1344      1
  1336      1
  1328      2
  1304      1
  1296      1
  1284      1
  1280      1
  1264      1
  1260      1
  1256      1
  1226      1
  1216      1
  1208      1
  1202      1
  1196      1
  1192      3
  1188      1
  1184      2
  1182      1
  1176      2
  1168      1
  1128      1
  1122      1
  1120      1
  1114      1
  1106      1
  1104      1
  1098      1
  1090      1
  1088      1
  1084      1
  1076      2
  1072      3
  1064      2
  1056      1
  1044      1
  1040      1
  1024      1
  1020      1
  1012      2
  1010      1
  1008      1
  1004      1
   992      2
   976      2
   960      2
   944      2
   932      1
   928      2
   916      1
   904      3
   894      1
   892      1
   880      1
   876      1
   872      1
   864      1
   852      1
   848      4
   832      3
   820      2
   816      2
   808      2
   796      1
   786      1
   784      1
   776      3
   768      2
   764      2
   760      1
   756      2
   752      3
   730      1
   728      1
   720      3
   718      1
   716      1
   710      1
   706      2
   704      1
   702      1
   700      1
   688      2
   680      1
   676      3
   672      3
   666      1
   664      1
   660      1
   656      4
   648      1
   640      4
   638      2
   628      1
   620      1
   616      2
   614      1
   612      2
   608      2
   600      1
   598      1
   592      3
   588      1
   580      1
   576      5
   568      1
   560      2
   558      1
   552      2
   544      6
   528      3
   512      2
   476      1
   448      3
   432      1
   384      2
   372      1
   368      1
   352      1
   336      2
   240      1
   224      1
   204      1
   192      1
   152      1
   136      1

  TIME LIMIT REACHED: 3600
  TIME LIMIT REACHED: 3600
  TIME LIMIT REACHED: 3600
  TIME LIMIT REACHED: 3600



File: 801_40000_DI_0.txt  Instance No. 1
Wed Mar 11 11:35:51 2015

LP0 Time: 0 IPTime: 3601 The best integer solution (266):

1: 0:1 492:1 obj 1\\
1: 1:1 499:1 712:1 obj 1\\
1: 2:1 503:1 709:1 obj 1\\
1: 3:1 490:1 obj 1\\
1: 4:1 491:1 obj 1\\
1: 5:1 504:1 707:1 obj 1\\
1: 6:1 498:1 711:1 obj 1\\
1: 7:1 486:1 obj 1\\
1: 8:1 484:1 obj 1\\
1: 9:1 485:1 obj 1\\
1: 10:1 482:1 obj 1\\
1: 11:1 495:1 708:1 obj 1\\
1: 12:1 479:1 obj 1\\
1: 13:1 478:1 obj 1\\
1: 14:1 474:1 obj 1\\
1: 15:1 472:1 obj 1\\
1: 16:1 473:1 obj 1\\
1: 17:1 496:1 702:1 obj 1\\
1: 18:1 494:1 706:1 obj 1\\
1: 19:1 470:1 obj 1\\
1: 20:1 468:1 obj 1\\
1: 21:1 465:1 obj 1\\
1: 22:1 466:1 obj 1\\
1: 23:1 467:1 obj 1\\
1: 24:1 464:1 obj 1\\
1: 25:1 477:1 710:1 obj 1\\
1: 26:1 463:1 obj 1\\
1: 27:1 461:1 obj 1\\
1: 28:1 458:1 obj 1\\
1: 29:1 456:1 obj 1\\
1: 30:1 457:1 obj 1\\
1: 31:1 480:1 705:1 obj 1\\
1: 32:1 481:1 704:1 obj 1\\
1: 33:1 489:1 699:1 obj 1\\
1: 34:1 455:1 obj 1\\
1: 35:1 488:1 698:1 obj 1\\
1: 36:1 453:1 obj 1\\
1: 37:1 448:1 obj 1\\
1: 38:1 447:1 obj 1\\
1: 39:1 445:1 obj 1\\
1: 40:1 442:1 obj 1\\
1: 41:1 443:1 obj 1\\
1: 42:1 440:1 obj 1\\
1: 43:1 439:1 obj 1\\
1: 44:1 441:1 obj 1\\
1: 45:1 462:1 703:1 obj 1\\
1: 46:1 438:1 obj 1\\
1: 47:1 476:1 686:1 obj 1\\
1: 48:1 475:1 685:1 obj 1\\
1: 49:1 437:1 obj 1\\
1: 50:1 471:1 694:1 obj 1\\
1: 51:1 487:1 653:1 obj 1\\
1: 52:1 435:1 obj 1\\
1: 53:1 436:1 obj 1\\
1: 54:1 469:1 695:1 obj 1\\
1: 55:1 459:1 700:1 obj 1\\
1: 56:1 433:1 obj 1\\
1: 57:1 431:1 obj 1\\
1: 58:1 432:1 obj 1\\
1: 59:1 449:1 706:1 obj 1\\
1: 60:1 429:1 obj 1\\
1: 61:1 430:1 obj 1\\
1: 62:1 460:1 684:1 obj 1\\
1: 63:1 451:1 701:1 obj 1\\
1: 64:1 446:1 702:1 obj 1\\
1: 65:1 483:1 633:1 obj 1\\
1: 66:1 493:1 615:1 obj 1\\
1: 67:1 426:1 obj 1\\
1: 68:1 425:1 obj 1\\
1: 69:1 423:1 obj 1\\
1: 70:1 422:1 obj 1\\
1: 71:1 424:1 obj 1\\
1: 72:1 454:1 692:1 obj 1\\
1: 73:1 452:1 693:1 obj 1\\
1: 74:1 450:1 693:1 obj 1\\
1: 75:1 421:1 obj 1\\
1: 76:1 420:1 obj 1\\
1: 77:1 417:1 obj 1\\
1: 78:1 418:1 obj 1\\
1: 79:1 415:1 obj 1\\
1: 80:1 416:1 obj 1\\
1: 81:1 414:1 obj 1\\
1: 82:1 444:1 665:1 obj 1\\
1: 83:1 413:1 obj 1\\
1: 84:1 506:1 568:1 obj 1\\
1: 85:1 505:1 567:1 obj 1\\
1: 86:1 412:1 obj 1\\
1: 87:1 434:1 690:1 obj 1\\
1: 88:1 410:1 obj 1\\
1: 89:1 409:1 obj 1\\
1: 90:1 408:1 obj 1\\
1: 91:1 406:1 obj 1\\
1: 92:1 407:1 obj 1\\
1: 93:1 404:1 obj 1\\
1: 94:1 403:1 obj 1\\
1: 95:1 405:1 obj 1\\
1: 96:1 401:1 obj 1\\
1: 97:1 400:1 obj 1\\
1: 98:1 395:1 obj 1\\
1: 99:1 396:1 obj 1\\
1: 100:1 393:1 obj 1\\
1: 101:1 394:1 obj 1\\
1: 102:1 397:1 obj 1\\
1: 103:1 419:1 659:1 obj 1\\
1: 104:1 411:1 697:1 obj 1\\
1: 105:1 392:1 obj 1\\
1: 106:1 428:1 625:1 obj 1\\
1: 107:1 391:1 obj 1\\
1: 108:1 390:1 obj 1\\
1: 109:1 389:1 obj 1\\
1: 110:1 385:1 obj 1\\
1: 111:1 383:1 obj 1\\
1: 112:1 384:1 obj 1\\
1: 113:1 382:1 obj 1\\
1: 114:1 381:1 obj 1\\
1: 115:1 402:1 696:1 obj 1\\
1: 116:1 378:1 obj 1\\
1: 117:1 379:1 obj 1\\
1: 118:1 380:1 obj 1\\
1: 119:1 398:1 696:1 obj 1\\
1: 120:1 375:1 obj 1\\
1: 121:1 376:1 obj 1\\
1: 122:1 427:1 573:1 obj 1\\
1: 123:1 399:1 649:1 obj 1\\
1: 124:1 374:1 obj 1\\
1: 125:1 368:1 obj 1\\
1: 126:1 361:1 obj 1\\
1: 127:1 360:1 obj 1\\
1: 128:1 359:1 obj 1\\
1: 129:1 362:1 obj 1\\
1: 130:1 386:1 669:1 obj 1\\
1: 131:1 387:1 664:1 obj 1\\
1: 132:1 358:1 obj 1\\
1: 133:1 388:1 660:1 obj 1\\
1: 134:1 356:1 obj 1\\
1: 135:1 377:1 678:1 obj 1\\
1: 136:1 511:1 516:1 691:1 obj 1\\
1: 137:1 354:1 obj 1\\
1: 138:1 355:1 obj 1\\
1: 139:1 371:1 700:1 obj 1\\
1: 140:1 352:1 obj 1\\
1: 141:1 353:1 obj 1\\
1: 142:1 363:1 700:1 obj 1\\
1: 143:1 370:1 696:1 obj 1\\
1: 144:1 369:1 697:1 obj 1\\
1: 145:1 373:1 684:1 obj 1\\
1: 146:1 372:1 689:1 obj 1\\
1: 147:1 350:1 obj 1\\
1: 148:1 349:1 obj 1\\
1: 149:1 365:1 676:1 obj 1\\
1: 150:1 348:1 obj 1\\
1: 151:1 367:1 662:1 obj 1\\
1: 152:1 346:1 obj 1\\
1: 153:1 345:1 obj 1\\
1: 154:1 357:1 679:1 obj 1\\
1: 155:1 364:1 626:1 obj 1\\
1: 156:1 366:1 620:1 obj 1\\
1: 157:1 344:1 obj 1\\
1: 158:1 497:1 501:1 624:1 obj 1\\
1: 159:1 502:1 507:1 607:1 obj 1\\
1: 160:1 351:1 691:1 obj 1\\
1: 161:1 500:1 508:1 597:1 obj 1\\
1: 162:1 510:1 513:1 585:1 obj 1\\
1: 163:1 512:1 517:1 577:1 obj 1\\
1: 164:1 514:1 515:1 580:1 obj 1\\
1: 165:1 341:1 obj 1\\
1: 166:1 342:1 obj 1\\
1: 167:1 347:1 696:1 obj 1\\
1: 168:1 518:1 519:1 565:1 obj 1\\
1: 169:1 339:1 obj 1\\
1: 170:1 338:1 obj 1\\
1: 171:1 333:1 obj 1\\
1: 172:1 334:1 obj 1\\
1: 173:1 332:1 obj 1\\
1: 174:1 343:1 648:1 obj 1\\
1: 175:1 330:1 obj 1\\
1: 176:1 331:1 obj 1\\
1: 177:1 340:1 696:1 obj 1\\
1: 178:1 328:1 obj 1\\
1: 179:1 337:1 688:1 obj 1\\
1: 180:1 336:1 687:1 obj 1\\
1: 181:1 327:1 obj 1\\
1: 182:1 337:1 677:1 obj 1\\
1: 183:1 326:1 obj 1\\
1: 184:1 335:1 654:1 obj 1\\
1: 185:1 321:1 obj 1\\
1: 186:1 320:1 obj 1\\
1: 187:1 317:1 obj 1\\
1: 188:1 323:1 obj 1\\
1: 189:1 329:1 636:1 obj 1\\
1: 190:1 316:1 obj 1\\
1: 191:1 509:1 520:1 525:1 683:1 obj 1\\
1: 192:1 521:1 523:1 526:1 645:1 obj 1\\
1: 193:1 325:1 666:1 obj 1\\
1: 194:1 524:1 529:1 530:1 622:1 obj 1\\
1: 195:1 324:1 667:1 obj 1\\
1: 196:1 311:1 obj 1\\
1: 197:1 318:1 673:1 obj 1\\
1: 198:1 322:1 652:1 obj 1\\
1: 199:1 310:1 obj 1\\
1: 200:1 309:1 obj 1\\
1: 201:1 319:1 638:1 obj 1\\
1: 202:1 307:1 obj 1\\
1: 203:1 306:1 obj 1\\
1: 204:1 301:1 obj 1\\
1: 205:1 300:1 obj 1\\
1: 206:1 313:1 637:1 obj 1\\
1: 207:1 297:1 obj 1\\
1: 208:1 298:1 obj 1\\
1: 209:1 296:1 obj 1\\
1: 210:1 294:1 obj 1\\
1: 211:1 295:1 obj 1\\
1: 212:1 303:1 682:1 obj 1\\
1: 213:1 302:1 650:1 obj 1\\
1: 214:1 292:1 obj 1\\
1: 215:1 304:1 598:1 obj 1\\
1: 216:1 305:1 594:1 obj 1\\
1: 217:1 299:1 643:1 obj 1\\
1: 218:1 302:1 599:1 obj 1\\
1: 219:1 293:1 691:1 obj 1\\
1: 220:1 289:1 obj 1\\
1: 221:1 308:1 562:1 obj 1\\
1: 222:1 288:1 obj 1\\
1: 223:1 286:1 obj 1\\
1: 224:1 283:1 obj 1\\
1: 225:1 282:1 obj 1\\
1: 226:1 280:1 obj 1\\
1: 227:1 279:1 obj 1\\
1: 228:1 281:1 obj 1\\
1: 229:1 291:1 668:1 obj 1\\
1: 230:1 290:1 681:1 obj 1\\
1: 231:1 285:1 688:1 obj 1\\
1: 232:1 284:1 661:1 obj 1\\
1: 233:1 277:1 obj 1\\
1: 234:1 287:1 634:1 obj 1\\
1: 235:1 314:1 522:1 672:1 obj 1\\
1: 236:1 312:1 529:1 655:1 obj 1\\
1: 237:1 278:1 633:1 obj 1\\
1: 238:1 272:1 obj 1\\
1: 239:1 315:1 540:1 548:1 obj 1\\
1: 240:1 276:1 675:1 obj 1\\
1: 241:1 528:1 529:2 530:1 533:1 671:1 obj 1\\
1: 242:1 275:1 680:1 obj 1\\
1: 243:1 527:1 530:1 531:1 532:1 541:1 611:1 obj 1\\
1: 244:1 270:1 695:1 obj 1\\
1: 245:1 267:1 663:1 obj 1\\
1: 246:1 274:1 657:1 obj 1\\
1: 247:1 268:1 651:1 obj 1\\
1: 248:1 266:1 obj 1\\
1: 249:1 269:1 644:1 obj 1\\
1: 250:1 271:1 639:1 obj 1\\
1: 251:1 265:1 obj 1\\
1: 252:1 273:1 543:1 obj 1\\
1: 253:1 263:1 obj 1\\
1: 254:1 534:1 535:2 536:1 537:1 539:1 557:1 obj 1\\
1: 255:1 264:1 642:1 obj 1\\
1: 256:1 538:1 542:1 544:2 545:1 547:1 549:1 653:1 obj 1\\
1: 257:1 546:1 550:2 553:3 554:1 583:1 682:1 obj 1\\
1: 258:1 551:1 552:1 555:1 556:1 558:1 559:1 560:1 561:1 646:1 obj 1\\
1: 259:1 587:1 588:1 590:1 591:1 592:1 593:1 595:1 596:1 600:1 601:1 602:1 603:1 674:1 obj 1\\
1: 260:1 563:1 564:2 566:1 569:1 570:1 571:1 572:1 579:1 618:1 obj 1\\
1: 261:1 574:2 575:1 576:1 578:1 581:1 582:1 584:1 586:1 589:1 605:1 obj 1\\
1: 262:1 604:2 606:2 608:1 609:1 610:1 612:1 613:1 614:1 616:1 619:1 637:1 672:2 obj 1\\
1: 359:1 617:1 620:1 621:1 623:1 626:1 627:1 628:1 629:1 630:2 631:2 632:2 635:2 640:1 641:1 645:3 647:2 655:1 658:2 671:2 obj 1\\
1: 405:1 580:2 586:1 589:1 602:2 619:2 637:1 646:2 653:1 654:1 656:1 657:1 661:2 665:1 669:1 670:1 676:3 678:3 679:1 685:1 688:1 691:2 696:1 obj 1\\
1: 618:1 648:1 649:1 658:1 697:1 698:1 obj 1\\



The last LP solution 


File: 801_40000_DI_0.txt  Instance No. 1
Wed Mar 11 11:35:51 2015

LP solution: lpval=266 lpbnd=-1e+100

1: 0:1 492:1 obj 1\\
1: 1:1 499:1 712:1 obj 1\\
1: 2:1 503:1 709:1 obj 1\\
1: 3:1 490:1 obj 1\\
1: 4:1 491:1 obj 1\\
1: 5:1 504:1 707:1 obj 1\\
1: 6:1 498:1 711:1 obj 1\\
1: 7:1 486:1 obj 1\\
1: 8:1 484:1 obj 1\\
1: 9:1 485:1 obj 1\\
1: 10:1 482:1 obj 1\\
1: 11:1 495:1 708:1 obj 1\\
1: 12:1 479:1 obj 1\\
1: 13:1 478:1 obj 1\\
1: 14:1 474:1 obj 1\\
1: 15:1 472:1 obj 1\\
1: 16:1 473:1 obj 1\\
1: 17:1 496:1 702:1 obj 1\\
1: 18:1 494:1 706:1 obj 1\\
1: 19:1 470:1 obj 1\\
1: 20:1 468:1 obj 1\\
1: 21:1 465:1 obj 1\\
1: 22:1 466:1 obj 1\\
1: 23:1 467:1 obj 1\\
1: 24:1 464:1 obj 1\\
1: 25:1 477:1 710:1 obj 1\\
1: 26:1 463:1 obj 1\\
1: 27:1 461:1 obj 1\\
1: 28:1 458:1 obj 1\\
1: 29:1 456:1 obj 1\\
1: 30:1 457:1 obj 1\\
1: 31:1 480:1 705:1 obj 1\\
1: 32:1 481:1 704:1 obj 1\\
1: 33:1 489:1 699:1 obj 1\\
1: 34:1 455:1 obj 1\\
1: 35:1 488:1 698:1 obj 1\\
1: 36:1 453:1 obj 1\\
1: 37:1 448:1 obj 1\\
1: 38:1 447:1 obj 1\\
1: 39:1 445:1 obj 1\\
1: 40:1 442:1 obj 1\\
1: 41:1 443:1 obj 1\\
1: 42:1 440:1 obj 1\\
1: 43:1 439:1 obj 1\\
1: 44:1 441:1 obj 1\\
1: 45:1 462:1 703:1 obj 1\\
1: 46:1 438:1 obj 1\\
1: 47:1 476:1 686:1 obj 1\\
1: 48:1 475:1 685:1 obj 1\\
1: 49:1 437:1 obj 1\\
1: 50:1 471:1 694:1 obj 1\\
1: 51:1 487:1 653:1 obj 1\\
1: 52:1 435:1 obj 1\\
1: 53:1 436:1 obj 1\\
1: 54:1 469:1 695:1 obj 1\\
1: 55:1 459:1 700:1 obj 1\\
1: 56:1 433:1 obj 1\\
1: 57:1 431:1 obj 1\\
1: 58:1 432:1 obj 1\\
1: 59:1 449:1 706:1 obj 1\\
1: 60:1 429:1 obj 1\\
1: 61:1 430:1 obj 1\\
1: 62:1 460:1 684:1 obj 1\\
1: 63:1 451:1 701:1 obj 1\\
1: 64:1 446:1 702:1 obj 1\\
1: 65:1 483:1 633:1 obj 1\\
1: 66:1 493:1 615:1 obj 1\\
1: 67:1 426:1 obj 1\\
1: 68:1 425:1 obj 1\\
1: 69:1 423:1 obj 1\\
1: 70:1 422:1 obj 1\\
1: 71:1 424:1 obj 1\\
1: 72:1 454:1 692:1 obj 1\\
1: 73:1 452:1 693:1 obj 1\\
1: 74:1 450:1 693:1 obj 1\\
1: 75:1 421:1 obj 1\\
1: 76:1 420:1 obj 1\\
1: 77:1 417:1 obj 1\\
1: 78:1 418:1 obj 1\\
1: 79:1 415:1 obj 1\\
1: 80:1 416:1 obj 1\\
1: 81:1 414:1 obj 1\\
1: 82:1 444:1 665:1 obj 1\\
1: 83:1 413:1 obj 1\\
1: 84:1 506:1 568:1 obj 1\\
1: 85:1 505:1 567:1 obj 1\\
1: 86:1 412:1 obj 1\\
1: 87:1 434:1 690:1 obj 1\\
1: 88:1 410:1 obj 1\\
1: 89:1 409:1 obj 1\\
1: 90:1 408:1 obj 1\\
1: 91:1 406:1 obj 1\\
1: 92:1 407:1 obj 1\\
1: 93:1 404:1 obj 1\\
1: 94:1 403:1 obj 1\\
1: 95:1 405:1 obj 1\\
1: 96:1 401:1 obj 1\\
1: 97:1 400:1 obj 1\\
1: 98:1 395:1 obj 1\\
1: 99:1 396:1 obj 1\\
1: 100:1 393:1 obj 1\\
1: 101:1 394:1 obj 1\\
1: 102:1 397:1 obj 1\\
1: 103:1 419:1 659:1 obj 1\\
1: 104:1 411:1 697:1 obj 1\\
1: 105:1 392:1 obj 1\\
1: 106:1 428:1 625:1 obj 1\\
1: 107:1 391:1 obj 1\\
1: 108:1 390:1 obj 1\\
1: 109:1 389:1 obj 1\\
1: 110:1 385:1 obj 1\\
1: 111:1 383:1 obj 1\\
1: 112:1 384:1 obj 1\\
1: 113:1 382:1 obj 1\\
1: 114:1 381:1 obj 1\\
1: 115:1 402:1 696:1 obj 1\\
1: 116:1 378:1 obj 1\\
1: 117:1 379:1 obj 1\\
1: 118:1 380:1 obj 1\\
1: 119:1 398:1 696:1 obj 1\\
1: 120:1 375:1 obj 1\\
1: 121:1 376:1 obj 1\\
1: 122:1 427:1 573:1 obj 1\\
1: 123:1 399:1 649:1 obj 1\\
1: 124:1 374:1 obj 1\\
1: 125:1 368:1 obj 1\\
1: 126:1 361:1 obj 1\\
1: 127:1 360:1 obj 1\\
1: 128:1 359:1 obj 1\\
1: 129:1 362:1 obj 1\\
1: 130:1 386:1 669:1 obj 1\\
1: 131:1 387:1 664:1 obj 1\\
1: 132:1 358:1 obj 1\\
1: 133:1 388:1 660:1 obj 1\\
1: 134:1 356:1 obj 1\\
1: 135:1 377:1 678:1 obj 1\\
1: 136:1 511:1 516:1 691:1 obj 1\\
1: 137:1 354:1 obj 1\\
1: 138:1 355:1 obj 1\\
1: 139:1 371:1 700:1 obj 1\\
1: 140:1 352:1 obj 1\\
1: 141:1 353:1 obj 1\\
1: 142:1 363:1 700:1 obj 1\\
1: 143:1 370:1 696:1 obj 1\\
1: 144:1 369:1 697:1 obj 1\\
1: 145:1 373:1 684:1 obj 1\\
1: 146:1 372:1 689:1 obj 1\\
1: 147:1 350:1 obj 1\\
1: 148:1 349:1 obj 1\\
1: 149:1 365:1 676:1 obj 1\\
1: 150:1 348:1 obj 1\\
1: 151:1 367:1 662:1 obj 1\\
1: 152:1 346:1 obj 1\\
1: 153:1 345:1 obj 1\\
1: 154:1 357:1 679:1 obj 1\\
1: 155:1 364:1 626:1 obj 1\\
1: 156:1 366:1 620:1 obj 1\\
1: 157:1 344:1 obj 1\\
1: 158:1 497:1 501:1 624:1 obj 1\\
1: 159:1 502:1 507:1 607:1 obj 1\\
1: 160:1 351:1 691:1 obj 1\\
1: 161:1 500:1 508:1 597:1 obj 1\\
1: 162:1 510:1 513:1 585:1 obj 1\\
1: 163:1 512:1 517:1 577:1 obj 1\\
1: 164:1 514:1 515:1 580:1 obj 1\\
1: 165:1 341:1 obj 1\\
1: 166:1 342:1 obj 1\\
1: 167:1 347:1 696:1 obj 1\\
1: 168:1 518:1 519:1 565:1 obj 1\\
1: 169:1 339:1 obj 1\\
1: 170:1 338:1 obj 1\\
1: 171:1 333:1 obj 1\\
1: 172:1 334:1 obj 1\\
1: 173:1 332:1 obj 1\\
1: 174:1 343:1 648:1 obj 1\\
1: 175:1 330:1 obj 1\\
1: 176:1 331:1 obj 1\\
1: 177:1 340:1 696:1 obj 1\\
1: 178:1 328:1 obj 1\\
1: 179:1 337:1 688:1 obj 1\\
1: 180:1 336:1 687:1 obj 1\\
1: 181:1 327:1 obj 1\\
1: 182:1 337:1 677:1 obj 1\\
1: 183:1 326:1 obj 1\\
1: 184:1 335:1 654:1 obj 1\\
1: 185:1 321:1 obj 1\\
1: 186:1 320:1 obj 1\\
1: 187:1 317:1 obj 1\\
1: 188:1 323:1 obj 1\\
1: 189:1 329:1 636:1 obj 1\\
1: 190:1 316:1 obj 1\\
1: 191:1 509:1 520:1 525:1 683:1 obj 1\\
1: 192:1 521:1 523:1 526:1 645:1 obj 1\\
1: 193:1 325:1 666:1 obj 1\\
1: 194:1 524:1 529:1 530:1 622:1 obj 1\\
1: 195:1 324:1 667:1 obj 1\\
1: 196:1 311:1 obj 1\\
1: 197:1 318:1 673:1 obj 1\\
1: 198:1 322:1 652:1 obj 1\\
1: 199:1 310:1 obj 1\\
1: 200:1 309:1 obj 1\\
1: 201:1 319:1 638:1 obj 1\\
1: 202:1 307:1 obj 1\\
1: 203:1 306:1 obj 1\\
1: 204:1 301:1 obj 1\\
1: 205:1 300:1 obj 1\\
1: 206:1 313:1 637:1 obj 1\\
1: 207:1 297:1 obj 1\\
1: 208:1 298:1 obj 1\\
1: 209:1 296:1 obj 1\\
1: 210:1 294:1 obj 1\\
1: 211:1 295:1 obj 1\\
1: 212:1 303:1 682:1 obj 1\\
1: 213:1 302:1 650:1 obj 1\\
1: 214:1 292:1 obj 1\\
1: 215:1 304:1 598:1 obj 1\\
1: 216:1 305:1 594:1 obj 1\\
1: 217:1 299:1 643:1 obj 1\\
1: 218:1 302:1 599:1 obj 1\\
1: 219:1 293:1 691:1 obj 1\\
1: 220:1 289:1 obj 1\\
1: 221:1 308:1 562:1 obj 1\\
1: 222:1 288:1 obj 1\\
1: 223:1 286:1 obj 1\\
1: 224:1 283:1 obj 1\\
1: 225:1 282:1 obj 1\\
1: 226:1 280:1 obj 1\\
1: 227:1 279:1 obj 1\\
1: 228:1 281:1 obj 1\\
1: 229:1 291:1 668:1 obj 1\\
1: 230:1 290:1 681:1 obj 1\\
1: 231:1 285:1 688:1 obj 1\\
1: 232:1 284:1 661:1 obj 1\\
1: 233:1 277:1 obj 1\\
1: 234:1 287:1 634:1 obj 1\\
1: 235:1 314:1 522:1 672:1 obj 1\\
1: 236:1 312:1 529:1 655:1 obj 1\\
1: 237:1 278:1 633:1 obj 1\\
1: 238:1 272:1 obj 1\\
1: 239:1 315:1 540:1 548:1 obj 1\\
1: 240:1 276:1 675:1 obj 1\\
1: 241:1 528:1 529:2 530:1 533:1 671:1 obj 1\\
1: 242:1 275:1 680:1 obj 1\\
1: 243:1 527:1 530:1 531:1 532:1 541:1 611:1 obj 1\\
1: 244:1 270:1 695:1 obj 1\\
1: 245:1 267:1 663:1 obj 1\\
1: 246:1 274:1 657:1 obj 1\\
1: 247:1 268:1 651:1 obj 1\\
1: 248:1 266:1 obj 1\\
1: 249:1 269:1 644:1 obj 1\\
1: 250:1 271:1 639:1 obj 1\\
1: 251:1 265:1 obj 1\\
1: 252:1 273:1 543:1 obj 1\\
1: 253:1 263:1 obj 1\\
1: 254:1 534:1 535:2 536:1 537:1 539:1 557:1 obj 1\\
1: 255:1 264:1 642:1 obj 1\\
1: 256:1 538:1 542:1 544:2 545:1 547:1 549:1 653:1 obj 1\\
1: 257:1 546:1 550:2 553:3 554:1 583:1 682:1 obj 1\\
0.9999999999999993: 258:1 551:1 552:1 555:1 556:1 558:1 559:1 560:1 561:1 646:1 obj 1\\
0.9999999999999993: 259:1 587:1 588:1 590:1 591:1 592:1 593:1 595:1 596:1 600:1 601:1 602:1 603:1 674:1 obj 1\\
1: 260:1 563:1 564:2 566:1 569:1 570:1 571:1 572:1 579:1 618:1 obj 1\\
1: 261:1 574:2 575:1 576:1 578:1 581:1 582:1 584:1 586:1 589:1 605:1 obj 1\\
0.9999999999999993: 262:1 604:2 606:2 608:1 609:1 610:1 612:1 613:1 614:1 616:1 619:1 637:1 672:2 obj 1\\
1: 359:1 617:1 620:1 621:1 623:1 626:1 627:1 628:1 629:1 630:2 631:2 632:2 635:2 640:1 641:1 645:3 647:2 655:1 658:2 671:2 obj 1\\
0.9999999999999966: 405:1 580:2 586:1 589:1 602:2 619:2 637:1 646:2 653:1 654:1 656:1 657:1 661:2 665:1 669:1 670:1 676:3 678:3 679:1 685:1 688:1 691:2 696:1 obj 1\\
0.9999999999999813: 618:1 648:1 649:1 658:1 697:1 698:1 obj 1\\



